NAME : kroC100-C-5-1-a__cluster__28109.tour
COMMENT : Length = 28109.000
COMMENT : Generated by compare_sota_instances.py for cluster
TYPE : TOUR
DIMENSION : 100
TOUR_SECTION
1
44
66
10
92
45
81
97
87
96
52
11
84
48
51
16
29
37
46
61
9
78
82
7
26
32
24
53
27
15
13
79
20
64
42
55
47
31
67
65
6
54
75
22
8
17
25
34
90
58
98
88
28
39
38
71
56
5
43
86
72
83
62
80
77
2
50
95
94
76
70
91
23
35
68
30
41
89
21
59
3
73
69
74
100
33
57
36
19
99
93
60
4
14
63
18
49
12
40
85
-1
EOF
